p cnf 116 407
-5 -3 0
-5 4 0
3 -4 5 0
6 2 0
6 -5 0
-2 5 -6 0
-7 1 0
-7 6 0
-1 -6 7 0
-8 -9 -10 0
8 9 -10 0
-8 9 10 0
8 -9 10 0
12 -10 0
12 11 0
10 -11 -12 0
2 12 -13 0
-2 -12 -13 0
2 -12 13 0
-2 12 13 0
14 7 0
14 -13 0
-7 13 -14 0
-15 9 -16 0
15 -9 -16 0
-15 -9 16 0
15 9 16 0
-18 17 0
-18 -9 0
-17 9 18 0
16 -18 -19 0
-16 18 -19 0
16 18 19 0
-16 -18 19 0
21 15 0
21 20 0
-15 -20 -21 0
-22 21 0
-22 1 0
-21 -1 22 0
23 -1 0
23 -22 0
1 22 -23 0
-19 -23 -24 0
19 23 -24 0
-19 23 24 0
19 -23 24 0
26 -19 0
26 25 0
19 -25 -26 0
27 -25 0
27 -26 0
25 26 -27 0
-24 -27 -28 0
24 27 -28 0
-24 27 28 0
24 -27 28 0
26 5 -29 0
-26 -5 -29 0
26 -5 29 0
-26 5 29 0
-30 1 0
-30 -17 0
-1 17 30 0
31 30 0
31 -11 0
-30 11 -31 0
-32 29 0
-32 -31 0
-29 31 32 0
33 -4 0
33 1 0
4 -1 -33 0
-11 15 -34 0
11 -15 -34 0
-11 -15 34 0
11 15 34 0
35 -17 0
35 34 0
17 -34 -35 0
36 33 0
36 35 0
-33 -35 -36 0
-37 -16 0
-37 10 0
16 -10 37 0
36 37 -38 0
-36 -37 -38 0
36 -37 38 0
-36 37 38 0
-39 -19 0
-39 9 0
19 -9 39 0
41 39 0
41 -40 0
-39 40 -41 0
5 41 -42 0
-5 -41 -42 0
5 -41 42 0
-5 41 42 0
43 -18 0
43 25 0
18 -25 -43 0
44 3 0
44 -43 0
-3 43 -44 0
42 44 -45 0
-42 -44 -45 0
42 -44 45 0
-42 44 45 0
-20 39 -46 0
20 -39 -46 0
-20 -39 46 0
20 39 46 0
47 -46 0
47 -15 0
46 15 -47 0
21 30 -48 0
-21 -30 -48 0
21 -30 48 0
-21 30 48 0
49 -47 0
49 48 0
47 -48 -49 0
50 45 0
50 49 0
-45 -49 -50 0
51 38 0
51 50 0
-38 -50 -51 0
-32 51 -52 0
32 -51 -52 0
-32 -51 52 0
32 51 52 0
-53 -28 0
-53 -52 0
28 52 53 0
-54 14 0
-54 53 0
-14 -53 54 0
-55 -3 0
-55 -40 0
3 40 55 0
56 6 0
56 -41 0
-6 41 -56 0
-57 55 0
-57 56 0
-55 -56 57 0
58 15 0
58 -5 0
-15 5 -58 0
59 -1 0
59 -43 0
1 43 -59 0
-60 -58 0
-60 -59 0
58 59 60 0
16 19 -61 0
-16 -19 -61 0
16 -19 61 0
-16 19 61 0
62 61 0
62 -1 0
-61 1 -62 0
15 63 0
-15 63 0
-64 -62 0
-64 63 0
62 -63 64 0
-65 20 0
-65 -61 0
-20 61 65 0
66 65 0
66 -43 0
-65 43 -66 0
-67 64 0
-67 -66 0
-64 66 67 0
-34 63 -68 0
34 -63 -68 0
-34 -63 68 0
34 63 68 0
-69 -67 0
-69 -68 0
67 68 69 0
18 4 -70 0
-18 -4 -70 0
18 -4 70 0
-18 4 70 0
-69 -70 -71 0
69 70 -71 0
-69 70 71 0
69 -70 71 0
-39 -68 -72 0
39 68 -72 0
-39 68 72 0
39 -68 72 0
74 -72 0
74 -73 0
72 73 -74 0
-75 12 0
-75 61 0
-12 -61 75 0
-76 -64 0
-76 -75 0
64 75 76 0
-75 -76 -77 0
75 76 -77 0
-75 76 77 0
75 -76 77 0
74 77 -78 0
-74 -77 -78 0
74 -77 78 0
-74 77 78 0
79 71 0
79 -78 0
-71 78 -79 0
-80 -60 0
-80 -79 0
60 79 80 0
-81 3 0
-81 -18 0
-3 18 81 0
-82 22 0
-82 81 0
-22 -81 82 0
43 -82 -83 0
-43 82 -83 0
43 82 83 0
-43 -82 83 0
84 -22 0
84 81 0
22 -81 -84 0
85 -83 0
85 84 0
83 -84 -85 0
80 -85 -86 0
-80 85 -86 0
80 85 86 0
-80 -85 86 0
57 86 -87 0
-57 -86 -87 0
57 -86 87 0
-57 86 87 0
-88 54 0
-88 87 0
-54 -87 88 0
-89 -9 0
-89 -2 0
9 2 89 0
-90 -46 0
-90 -2 0
46 2 90 0
89 90 -91 0
-89 -90 -91 0
89 -90 91 0
-89 90 91 0
46 4 -92 0
-46 -4 -92 0
46 -4 92 0
-46 4 92 0
93 -8 0
93 -1 0
8 1 -93 0
-94 70 0
-94 -93 0
-70 93 94 0
-95 -92 0
-95 94 0
92 -94 95 0
-96 -91 0
-96 -95 0
91 95 96 0
-97 -81 0
-97 70 0
81 -70 97 0
-98 40 0
-98 -34 0
-40 34 98 0
-99 97 0
-99 -98 0
-97 98 99 0
100 -96 0
100 -99 0
96 99 -100 0
101 67 0
101 20 0
-67 -20 -101 0
102 -22 0
102 -64 0
22 64 -102 0
-101 102 -103 0
101 -102 -103 0
-101 -102 103 0
101 102 103 0
40 -26 -104 0
-40 26 -104 0
40 26 104 0
-40 -26 104 0
105 12 0
105 -104 0
-12 104 -105 0
107 -19 0
107 -106 0
19 106 -107 0
105 -107 -108 0
-105 107 -108 0
105 107 108 0
-105 -107 108 0
109 -103 0
109 108 0
103 -108 -109 0
110 -9 0
110 -18 0
9 18 -110 0
104 -110 -111 0
-104 110 -111 0
104 110 111 0
-104 -110 111 0
-112 -109 0
-112 -111 0
109 111 112 0
65 104 -113 0
-65 -104 -113 0
65 -104 113 0
-65 104 113 0
114 112 0
114 -113 0
-112 113 -114 0
-100 114 -115 0
100 -114 -115 0
-100 -114 115 0
100 114 115 0
-88 115 -116 0
88 -115 -116 0
-88 -115 116 0
88 115 116 0
116 22 0
-97 -87 20 0
64 -114 -75 0
103 23 7 55 11 -78 0
90 1 -39 72 99 0
-84 -106 -32 0
83 104 5 -19 -25 0
-91 78 0
-68 -64 0
-49 11 0
56 109 -28 -67 0
52 59 86 0
-108 -97 -58 84 83 -76 0
98 67 79 -100 0
2 81 0
113 -100 -96 -47 87 -13 0
38 31 97 0
41 -22 0
-3 -92 -57 48 -36 80 0
-10 -71 2 -93 -15 -51 0
29 -12 107 -21 0
-49 70 -31 -25 8 42 0
-75 79 0
39 101 -25 -19 -27 0
-17 -57 0
110 79 11 0
-43 -84 106 102 0
-2 45 108 13 40 0
-105 -102 0
95 102 -24 0
-89 96 -110 -52 -102 0
11 67 108 0
-114 93 -46 30 110 0
78 85 -91 41 -50 34 0
39 -45 100 70 -98 -35 0
-14 -46 -2 90 39 0
-76 86 -90 104 0
17 8 0
-13 85 -73 -113 25 0
35 37 57 0
-78 91 56 0
-19 -74 -96 -100 -110 0
62 -55 -57 -17 -104 -1 0
42 -74 0
116 101 0
-107 101 0
-54 79 0
-7 47 51 -29 114 0
-50 -109 0
-107 10 -62 -46 0
-15 -66 -47 -93 0
-111 103 -113 53 0
2 64 -1 -77 -48 0
75 -31 0
86 107 0
93 -73 20 -81 0
31 -104 -13 14 34 86 0
-97 50 78 22 80 0
-77 89 29 -109 -44 0
108 87 45 -111 0
17 -75 -73 83 78 0
-53 -108 66 12 0
-25 -94 88 0
1 33 108 8 0
57 62 0
87 15 82 64 42 0
-19 -25 7 1 16 0
58 -25 59 0
116 0
